(set-logic ALL)
(set-option :produce-models true)
(declare-sort BoundSet 0)
(declare-sort UnboundSet 0)
(set-option :finite-model-find true)
(declare-fun IsPedaling (BoundSet BoundSet) Bool)
(declare-fun IsRiding (BoundSet BoundSet) Bool)
(declare-fun IsOutside (BoundSet) Bool)
(assert (not (=> (and (exists ((b BoundSet)) (exists ((a BoundSet)) (IsPedaling a b))) (forall ((d BoundSet)) (forall ((e BoundSet)) (=> (IsPedaling d e) (IsRiding d e))))) (exists ((b BoundSet)) (exists ((c BoundSet)) (exists ((a BoundSet)) (and (IsRiding a b) (IsOutside c))))))))
(check-sat)
(get-model)